(set-info :Origin "This instance was generated by: BanditFuzz-- an RL fuzzer for SMT solvers" )
(set-info :Author "Joe Scott, Fed Mora, Vijay Ganesh" )
(set-info :Contact "Joe Scott, joseph.scott@uwaterloo.ca")
(set-logic QF_BV)
(declare-const bool_0 Bool)
(declare-const bool_1 Bool)
(declare-const bool_2 Bool)
(declare-const bool_3 Bool)
(declare-const bool_4 Bool)
(declare-const bv_0 (_ BitVec 32))
(declare-const bv_1 (_ BitVec 32))
(declare-const bv_2 (_ BitVec 32))
(declare-const bv_3 (_ BitVec 32))
(declare-const bv_4 (_ BitVec 32))
(assert (bvsgt (bvudiv (bvudiv #xeec70cc8  #x8edc76af ) (bvsmod #xa4de3048  bv_4)) (bvsub (bvnor bv_1 #x5825d478 ) (bvxnor #xaae4fc82  #x46a41886 ))))
(assert (and (bvsgt (bvor bv_0 #x4b9a3f8b ) (bvxor #x8c55bb4b  #x057dfa1e )) (bvsle (bvadd #x190af4d8  #xb7a8d7c7 ) (bvxnor #x0b6553c6  bv_4))))
(assert (=> (bvsle (bvnand #xfc562aba  #x84bf58bc ) (bvlshr #xf7d1c23f  bv_2)) (bvugt (bvmul #xd2d32b91  #xd397857d ) (bvxnor bv_1 bv_4))))
(assert (bvuge (bvashr (bvsdiv #x30ca0af3  bv_0) (bvmul #x5bade8bb  #x6f2c46cb )) (bvashr (bvadd bv_0 #xe765c794 ) (bvsub bv_4 bv_0))))
(assert (=> (bvslt (bvsmod #x19992523  bv_2) (bvsrem bv_3 bv_0)) (or (bvsge bv_2 bv_4) (bvult bv_2 #x074ef98d ))))
(check-sat)
(exit)
